\ENCODING=ISO-8859-1
\Problem name: ilog.cplex

Minimize
 obj1: 95094 x1 + 105164 x2 + 100238 x3 + 95011 x4 + 107350 x5 + 97787 x6
       + 90301 x7 + 103880 x8 + 106032 x9 + 108331 x10 + 95650 x11 + 100938 x12
       + 103983 x13 + 109993 x14 + 90692 x15 + 102890 x16 + 99584 x17
       + 104668 x18 + 99153 x19 + 94153 x20 + 96577 x21 + 98470 x22
       + 104830 x23 + 100471 x24 + 93792 x25 + 102508 x26 + 92263 x27
       + 94619 x28 + 109887 x29 + 98795 x30 + 92673 x31 + 94720 x32 + 90099 x33
       + 100129 x34 + 97721 x35 + 102455 x36 + 99517 x37 + 102299 x38
       + 96471 x39 + 105769 x40 + 100546 x41 + 97167 x42 + 109402 x43
       + 98719 x44 + 100990 x45 + 105980 x46 + 97401 x47 + 109680 x48
       + 103579 x49 + 103670 x50 + 96977 x51 + 99316 x52 + 102084 x53
       + 90423 x54 + 91887 x55 + 93175 x56 + 101807 x57 + 102787 x58
       + 99185 x59 + 95304 x60 + 100379 x61 + 108982 x62 + 100854 x63
       + 97933 x64 + 96156 x65 + 92620 x66 + 94586 x67 + 97762 x68 + 98325 x69
       + 97206 x70 + 108865 x71 + 95826 x72 + 102877 x73 + 99293 x74
       + 96876 x75 + 97697 x76 + 91858 x77 + 102892 x78 + 93903 x79
       + 101792 x80 + 92782 x81 + 108638 x82 + 99970 x83 + 103943 x84
       + 99958 x85 + 91860 x86 + 107107 x87 + 92263 x88 + 94928 x89 + 99967 x90
       + 108957 x91 + 98008 x92 + 109393 x93 + 91462 x94 + 109359 x95
       + 105276 x96 + 90674 x97 + 106420 x98 + 106082 x99 + 105250 x100
       + 109143 x101 + 109236 x102 + 100453 x103 + 109344 x104 + 108083 x105
       + 109521 x106 + 108676 x107 + 100209 x108 + 107873 x109 + 106058 x110
       + 103915 x111 + 106276 x112 + 91922 x113 + 101244 x114 + 108990 x115
       + 108747 x116 + 96559 x117 + 90340 x118 + 107165 x119 + 90487 x120
       + 99565 x121 + 104250 x122 + 100948 x123 + 92452 x124 + 104933 x125
       + 93048 x126 + 106691 x127 + 93557 x128 + 94718 x129 + 99117 x130
       + 105619 x131 + 94248 x132 + 92286 x133 + 91724 x134 + 95682 x135
       + 109842 x136 + 100360 x137 + 108490 x138 + 108044 x139 + 106132 x140
       + 101959 x141 + 93438 x142 + 106995 x143 + 96785 x144 + 102666 x145
       + 96167 x146 + 102769 x147 + 109768 x148 + 108614 x149 + 102203 x150
       + 100673 x151 + 90333 x152 + 100812 x153 + 96477 x154 + 102184 x155
       + 91649 x156 + 103827 x157 + 90892 x158 + 97182 x159 + 96670 x160
       + 92061 x161 + 91763 x162 + 93018 x163 + 93518 x164 + 100581 x165
       + 107114 x166 + 106583 x167 + 92371 x168 + 95506 x169 + 97486 x170
       + 98600 x171 + 108781 x172 + 101665 x173 + 108525 x174 + 95544 x175
       + 93771 x176 + 108345 x177 + 103861 x178 + 95625 x179 + 99071 x180
       + 97538 x181 + 109421 x182 + 96388 x183 + 92801 x184 + 93068 x185
       + 92485 x186 + 93252 x187 + 103371 x188 + 103459 x189 + 96681 x190
       + 100612 x191 + 107565 x192 + 106661 x193 + 97522 x194 + 100192 x195
       + 92503 x196 + 100480 x197 + 92204 x198 + 104878 x199 + 90597 x200
       + 91634 x201 + 92560 x202 + 106526 x203 + 93306 x204 + 96740 x205
       + 105696 x206 + 92978 x207 + 104802 x208 + 95280 x209 + 107389 x210
       + 99310 x211 + 104896 x212 + 97622 x213 + 104886 x214 + 102152 x215
       + 107082 x216 + 104228 x217 + 93479 x218 + 107415 x219 + 99901 x220
       + 94654 x221 + 94040 x222 + 107812 x223 + 105354 x224 + 98855 x225
       + 91126 x226 + 106250 x227 + 103988 x228 + 107526 x229 + 105852 x230
       + 93652 x231 + 105553 x232 + 108290 x233 + 99803 x234 + 95112 x235
       + 94014 x236 + 100143 x237 + 108917 x238 + 109252 x239 + 96169 x240
       + 99862 x241 + 109571 x242 + 102208 x243 + 94240 x244 + 90959 x245
       + 103048 x246 + 99904 x247 + 104557 x248 + 98303 x249 + 109077 x250
       + 104355 x251 + 99050 x252 + 91299 x253 + 109148 x254 + 107729 x255
       + 107124 x256 + 105329 x257 + 107126 x258 + 100158 x259 + 91544 x260
       + 103958 x261 + 105789 x262 + 94621 x263 + 95876 x264 + 105381 x265
       + 90715 x266 + 98814 x267 + 100941 x268 + 96541 x269 + 104632 x270
       + 101779 x271 + 93857 x272 + 90773 x273 + 101662 x274 + 104533 x275
       + 99009 x276 + 106007 x277 + 97826 x278 + 104318 x279 + 107571 x280
       + 99379 x281 + 96711 x282 + 92267 x283 + 100678 x284 + 102148 x285
       + 97987 x286 + 95082 x287 + 105432 x288 + 97387 x289 + 100834 x290
       + 102745 x291 + 92613 x292 + 92162 x293 + 94403 x294 + 96342 x295
       + 100307 x296 + 95791 x297 + 103017 x298 + 102734 x299 + 108640 x300
       + 97355 x301 + 107935 x302 + 92076 x303 + 100602 x304 + 90196 x305
       + 95605 x306 + 94592 x307 + 101846 x308 + 107899 x309 + 101965 x310
       + 104436 x311 + 92268 x312 + 95031 x313 + 98994 x314 + 90678 x315
       + 108512 x316 + 95011 x317 + 106994 x318 + 100850 x319 + 97607 x320
       + 102357 x321 + 99468 x322 + 101558 x323 + 104603 x324 + 101519 x325
       + 96817 x326 + 93980 x327 + 92396 x328 + 107642 x329 + 97322 x330
       + 95897 x331 + 102675 x332 + 96145 x333 + 100014 x334 + 93834 x335
       + 105877 x336 + 105261 x337 + 90759 x338 + 96390 x339 + 107593 x340
       + 98464 x341 + 90244 x342 + 102969 x343 + 99013 x344 + 102201 x345
       + 100547 x346 + 100914 x347 + 99845 x348 + 108410 x349 + 95588 x350
       + 99991 x351 + 90764 x352 + 96554 x353 + 90998 x354 + 90744 x355
       + 102462 x356 + 106726 x357 + 95301 x358 + 96563 x359 + 90440 x360
       + 97750 x361 + 92004 x362 + 100919 x363 + 108666 x364 + 92427 x365
       + 105686 x366 + 96512 x367 + 108431 x368 + 90481 x369 + 105274 x370
       + 91237 x371 + 96020 x372 + 92655 x373 + 109897 x374 + 108778 x375
       + 93442 x376 + 108355 x377 + 97381 x378 + 100493 x379 + 107250 x380
       + 90603 x381 + 104736 x382 + 109546 x383 + 105536 x384 + 109072 x385
       + 100333 x386 + 103086 x387 + 93792 x388 + 99685 x389 + 103396 x390
       + 93758 x391 + 106624 x392 + 97539 x393 + 108033 x394 + 107952 x395
       + 94193 x396 + 108844 x397 + 96250 x398 + 104928 x399 + 99767 x400
       + 97928 x401 + 109174 x402 + 108310 x403 + 99564 x404 + 91742 x405
       + 96727 x406 + 98367 x407 + 101179 x408 + 91578 x409 + 101946 x410
       + 101581 x411 + 107548 x412 + 98324 x413 + 105958 x414 + 107960 x415
       + 100104 x416 + 109328 x417 + 93106 x418 + 95497 x419 + 94793 x420
       + 96736 x421 + 96477 x422 + 96642 x423 + 90573 x424 + 94731 x425
       + 104332 x426 + 103641 x427 + 99495 x428 + 94724 x429 + 91595 x430
       + 95146 x431 + 101289 x432 + 105707 x433 + 95711 x434 + 109975 x435
       + 98331 x436 + 90703 x437 + 92012 x438 + 102993 x439 + 90538 x440
       + 99704 x441 + 100144 x442 + 92750 x443 + 103906 x444 + 104434 x445
       + 90154 x446 + 90897 x447 + 91330 x448 + 101001 x449 + 94523 x450
       + 90719 x451 + 92538 x452 + 104171 x453 + 97091 x454 + 97783 x455
       + 100074 x456 + 104515 x457 + 109325 x458 + 90003 x459 + 106428 x460
       + 91290 x461 + 96095 x462 + 90900 x463 + 94638 x464 + 100702 x465
       + 94300 x466 + 91584 x467 + 93550 x468 + 91151 x469 + 102172 x470
       + 98904 x471 + 108633 x472 + 90913 x473 + 100962 x474 + 100942 x475
       + 101482 x476 + 97083 x477 + 90873 x478 + 100000 x479 + 104106 x480
       + 106296 x481 + 96181 x482 + 106596 x483 + 90718 x484 + 108837 x485
       + 91381 x486 + 91864 x487 + 91897 x488 + 99499 x489 + 92715 x490
       + 100330 x491 + 103873 x492 + 90927 x493 + 107610 x494 + 90199 x495
       + 99114 x496 + 98137 x497 + 98267 x498 + 94095 x499 + 247412 x500
       + 439983 x501 + 370193 x502 + 434631 x503 + 421801 x504 + 414698 x505
       + 411180 x506 + 436757 x507 + 414497 x508 + 428334 x509 + 410662 x510
       + 438620 x511 + 422544 x512 + 387707 x513 + 391529 x514 + 406030 x515
       + 380567 x516 + 420085 x517 + 438110 x518 + 422947 x519 + 376414 x520
       + 433636 x521 + 427065 x522 + 426839 x523 + 372468 x524 + 376483 x525
       + 406365 x526 + 399439 x527 + 434943 x528 + 429375 x529 + 372175 x530
       + 399218 x531 + 361961 x532 + 411476 x533 + 362283 x534 + 400095 x535
       + 433765 x536 + 410680 x537 + 421034 x538 + 406599 x539 + 428524 x540
       + 389361 x541 + 374575 x542 + 388914 x543 + 374745 x544 + 383380 x545
       + 366531 x546 + 421932 x547 + 386390 x548 + 426653 x549 + 105807 x550
Subject To
 c1:   x4 - x9 - x10 + x14 - x24 - x26 + x29 - x38 + x40 - x42  = 0
 c2:   x54 - x59 - x60 + x64 - x74 - x76 + x79 - x88 + x90 - x92  = 0
 c3:   x104 - x109 - x110 + x114 - x124 - x126 + x129 - x138 + x140 - x142  = 0
 c4:   x154 - x159 - x160 + x164 - x174 - x176 + x179 - x188 + x190 - x192  = 0
 c5:   x204 - x209 - x210 + x214 - x224 - x226 + x229 - x238 + x240 - x242  = 0
 c6:   x254 - x259 - x260 + x264 - x274 - x276 + x279 - x288 + x290 - x292  = 0
 c7:   x304 - x309 - x310 + x314 - x324 - x326 + x329 - x338 + x340 - x342  = 0
 c8:   x354 - x359 - x360 + x364 - x374 - x376 + x379 - x388 + x390 - x392
        = -1
 c9:   x404 - x409 - x410 + x414 - x424 - x426 + x429 - x438 + x440 - x442  = 0
 c10:  x454 - x459 - x460 + x464 - x474 - x476 + x479 - x488 + x490 - x492  = 0
 c11:  - x1 - x3 + x10 - x11 - x14 + x15 + x21 - x25 + x31 + x41 + x43 - x47
       - x48  = 0
 c12:  - x51 - x53 + x60 - x61 - x64 + x65 + x71 - x75 + x81 + x91 + x93 - x97
       - x98  = 0
 c13:  - x101 - x103 + x110 - x111 - x114 + x115 + x121 - x125 + x131 + x141
       + x143 - x147 - x148  = 0
 c14:  - x151 - x153 + x160 - x161 - x164 + x165 + x171 - x175 + x181 + x191
       + x193 - x197 - x198  = 0
 c15:  - x201 - x203 + x210 - x211 - x214 + x215 + x221 - x225 + x231 + x241
       + x243 - x247 - x248  = 1
 c16:  - x251 - x253 + x260 - x261 - x264 + x265 + x271 - x275 + x281 + x291
       + x293 - x297 - x298  = 0
 c17:  - x301 - x303 + x310 - x311 - x314 + x315 + x321 - x325 + x331 + x341
       + x343 - x347 - x348  = 0
 c18:  - x351 - x353 + x360 - x361 - x364 + x365 + x371 - x375 + x381 + x391
       + x393 - x397 - x398  = 0
 c19:  - x401 - x403 + x410 - x411 - x414 + x415 + x421 - x425 + x431 + x441
       + x443 - x447 - x448  = 0
 c20:  - x451 - x453 + x460 - x461 - x464 + x465 + x471 - x475 + x481 + x491
       + x493 - x497 - x498  = 0
 c21:  x9 + x12 + x18 + x25 + x27 - x28 + x34 - x37 + x46  = 0
 c22:  x59 + x62 + x68 + x75 + x77 - x78 + x84 - x87 + x96  = 0
 c23:  x109 + x112 + x118 + x125 + x127 - x128 + x134 - x137 + x146  = 0
 c24:  x159 + x162 + x168 + x175 + x177 - x178 + x184 - x187 + x196  = 0
 c25:  x209 + x212 + x218 + x225 + x227 - x228 + x234 - x237 + x246  = 0
 c26:  x259 + x262 + x268 + x275 + x277 - x278 + x284 - x287 + x296  = 0
 c27:  x309 + x312 + x318 + x325 + x327 - x328 + x334 - x337 + x346  = 0
 c28:  x359 + x362 + x368 + x375 + x377 - x378 + x384 - x387 + x396  = 0
 c29:  x409 + x412 + x418 + x425 + x427 - x428 + x434 - x437 + x446  = 0
 c30:  x459 + x462 + x468 + x475 + x477 - x478 + x484 - x487 + x496  = 0
 c31:  x5 - x6 + x7 + x13 - x16 - x23 - x27 + x28 - x36 + x42 + x45 + x47 - x49
        = 0
 c32:  x55 - x56 + x57 + x63 - x66 - x73 - x77 + x78 - x86 + x92 + x95 + x97
       - x99  = 0
 c33:  x105 - x106 + x107 + x113 - x116 - x123 - x127 + x128 - x136 + x142
       + x145 + x147 - x149  = 0
 c34:  x155 - x156 + x157 + x163 - x166 - x173 - x177 + x178 - x186 + x192
       + x195 + x197 - x199  = -1
 c35:  x205 - x206 + x207 + x213 - x216 - x223 - x227 + x228 - x236 + x242
       + x245 + x247 - x249  = 0
 c36:  x255 - x256 + x257 + x263 - x266 - x273 - x277 + x278 - x286 + x292
       + x295 + x297 - x299  = 1
 c37:  x305 - x306 + x307 + x313 - x316 - x323 - x327 + x328 - x336 + x342
       + x345 + x347 - x349  = -1
 c38:  x355 - x356 + x357 + x363 - x366 - x373 - x377 + x378 - x386 + x392
       + x395 + x397 - x399  = 0
 c39:  x405 - x406 + x407 + x413 - x416 - x423 - x427 + x428 - x436 + x442
       + x445 + x447 - x449  = 1
 c40:  x455 - x456 + x457 + x463 - x466 - x473 - x477 + x478 - x486 + x492
       + x495 + x497 - x499  = 0
 c41:  - x7 + x11 - x12 - x20 + x22 - x29 - x30 + x33 + x35 + x36 - x44  = -1
 c42:  - x57 + x61 - x62 - x70 + x72 - x79 - x80 + x83 + x85 + x86 - x94  = 1
 c43:  - x107 + x111 - x112 - x120 + x122 - x129 - x130 + x133 + x135 + x136
       - x144  = 0
 c44:  - x157 + x161 - x162 - x170 + x172 - x179 - x180 + x183 + x185 + x186
       - x194  = 1
 c45:  - x207 + x211 - x212 - x220 + x222 - x229 - x230 + x233 + x235 + x236
       - x244  = 0
 c46:  - x257 + x261 - x262 - x270 + x272 - x279 - x280 + x283 + x285 + x286
       - x294  = -1
 c47:  - x307 + x311 - x312 - x320 + x322 - x329 - x330 + x333 + x335 + x336
       - x344  = 0
 c48:  - x357 + x361 - x362 - x370 + x372 - x379 - x380 + x383 + x385 + x386
       - x394  = 0
 c49:  - x407 + x411 - x412 - x420 + x422 - x429 - x430 + x433 + x435 + x436
       - x444  = 0
 c50:  - x457 + x461 - x462 - x470 + x472 - x479 - x480 + x483 + x485 + x486
       - x494  = 1
 c51:  x3 - x5 + x8 + x16 + x17 - x22 - x31 + x32 + x37 + x38  = 0
 c52:  x53 - x55 + x58 + x66 + x67 - x72 - x81 + x82 + x87 + x88  = 0
 c53:  x103 - x105 + x108 + x116 + x117 - x122 - x131 + x132 + x137 + x138  = 1
 c54:  x153 - x155 + x158 + x166 + x167 - x172 - x181 + x182 + x187 + x188  = 0
 c55:  x203 - x205 + x208 + x216 + x217 - x222 - x231 + x232 + x237 + x238
        = -1
 c56:  x253 - x255 + x258 + x266 + x267 - x272 - x281 + x282 + x287 + x288  = 0
 c57:  x303 - x305 + x308 + x316 + x317 - x322 - x331 + x332 + x337 + x338  = 0
 c58:  x353 - x355 + x358 + x366 + x367 - x372 - x381 + x382 + x387 + x388  = 0
 c59:  x403 - x405 + x408 + x416 + x417 - x422 - x431 + x432 + x437 + x438  = 0
 c60:  x453 - x455 + x458 + x466 + x467 - x472 - x481 + x482 + x487 + x488  = 0
 c61:  - x2 - x4 + x6 - x8 - x21 + x26 - x34 - x35 + x39 + x48  = 0
 c62:  - x52 - x54 + x56 - x58 - x71 + x76 - x84 - x85 + x89 + x98  = 0
 c63:  - x102 - x104 + x106 - x108 - x121 + x126 - x134 - x135 + x139 + x148
        = 0
 c64:  - x152 - x154 + x156 - x158 - x171 + x176 - x184 - x185 + x189 + x198
        = 0
 c65:  - x202 - x204 + x206 - x208 - x221 + x226 - x234 - x235 + x239 + x248
        = 0
 c66:  - x252 - x254 + x256 - x258 - x271 + x276 - x284 - x285 + x289 + x298
        = 0
 c67:  - x302 - x304 + x306 - x308 - x321 + x326 - x334 - x335 + x339 + x348
        = 0
 c68:  - x352 - x354 + x356 - x358 - x371 + x376 - x384 - x385 + x389 + x398
        = 1
 c69:  - x402 - x404 + x406 - x408 - x421 + x426 - x434 - x435 + x439 + x448
        = 0
 c70:  - x452 - x454 + x456 - x458 - x471 + x476 - x484 - x485 + x489 + x498
        = -1
 c71:  x2 - x18 - x19 + x20 - x32 - x41 - x45 + x50  = 1
 c72:  x52 - x68 - x69 + x70 - x82 - x91 - x95 + x100  = 0
 c73:  x102 - x118 - x119 + x120 - x132 - x141 - x145 + x150  = 0
 c74:  x152 - x168 - x169 + x170 - x182 - x191 - x195 + x200  = 0
 c75:  x202 - x218 - x219 + x220 - x232 - x241 - x245 + x250  = 0
 c76:  x252 - x268 - x269 + x270 - x282 - x291 - x295 + x300  = 0
 c77:  x302 - x318 - x319 + x320 - x332 - x341 - x345 + x350  = 1
 c78:  x352 - x368 - x369 + x370 - x382 - x391 - x395 + x400  = 0
 c79:  x402 - x418 - x419 + x420 - x432 - x441 - x445 + x450  = 0
 c80:  x452 - x468 - x469 + x470 - x482 - x491 - x495 + x500  = 0
 c81:  x1 - x17 - x33 - x43 + x44 - x46 + x49 - x50  = 0
 c82:  x51 - x67 - x83 - x93 + x94 - x96 + x99 - x100  = -1
 c83:  x101 - x117 - x133 - x143 + x144 - x146 + x149 - x150  = -1
 c84:  x151 - x167 - x183 - x193 + x194 - x196 + x199 - x200  = 0
 c85:  x201 - x217 - x233 - x243 + x244 - x246 + x249 - x250  = 0
 c86:  x251 - x267 - x283 - x293 + x294 - x296 + x299 - x300  = 0
 c87:  x301 - x317 - x333 - x343 + x344 - x346 + x349 - x350  = 0
 c88:  x351 - x367 - x383 - x393 + x394 - x396 + x399 - x400  = 0
 c89:  x401 - x417 - x433 - x443 + x444 - x446 + x449 - x450  = 0
 c90:  x451 - x467 - x483 - x493 + x494 - x496 + x499 - x500  = 0
 c91:  - x13 - x15 + x19 + x23 + x24 + x30 - x39 - x40  = 0
 c92:  - x63 - x65 + x69 + x73 + x74 + x80 - x89 - x90  = 0
 c93:  - x113 - x115 + x119 + x123 + x124 + x130 - x139 - x140  = 0
 c94:  - x163 - x165 + x169 + x173 + x174 + x180 - x189 - x190  = 0
 c95:  - x213 - x215 + x219 + x223 + x224 + x230 - x239 - x240  = 0
 c96:  - x263 - x265 + x269 + x273 + x274 + x280 - x289 - x290  = 0
 c97:  - x313 - x315 + x319 + x323 + x324 + x330 - x339 - x340  = 0
 c98:  - x363 - x365 + x369 + x373 + x374 + x380 - x389 - x390  = 0
 c99:  - x413 - x415 + x419 + x423 + x424 + x430 - x439 - x440  = -1
 c100: - x463 - x465 + x469 + x473 + x474 + x480 - x489 - x490  = 0
 c101: 4 x1 + 4 x51 + 4 x101 + 4 x151 + 4 x201 + 4 x251 + 4 x301 + 4 x351
       + 4 x401 + 4 x451 - 20 x501 <= 0
 c102: 4 x2 + 4 x52 + 4 x102 + 4 x152 + 4 x202 + 4 x252 + 4 x302 + 4 x352
       + 4 x402 + 4 x452 - 19 x502 <= 0
 c103: 4 x3 + 4 x53 + 4 x103 + 4 x153 + 4 x203 + 4 x253 + 4 x303 + 4 x353
       + 4 x403 + 4 x453 - 22 x503 <= 0
 c104: 4 x4 + 4 x54 + 4 x104 + 4 x154 + 4 x204 + 4 x254 + 4 x304 + 4 x354
       + 4 x404 + 4 x454 - 20 x504 <= 0
 c105: 4 x5 + 4 x55 + 4 x105 + 4 x155 + 4 x205 + 4 x255 + 4 x305 + 4 x355
       + 4 x405 + 4 x455 - 19 x505 <= 0
 c106: 4 x6 + 4 x56 + 4 x106 + 4 x156 + 4 x206 + 4 x256 + 4 x306 + 4 x356
       + 4 x406 + 4 x456 - 19 x506 <= 0
 c107: 4 x7 + 4 x57 + 4 x107 + 4 x157 + 4 x207 + 4 x257 + 4 x307 + 4 x357
       + 4 x407 + 4 x457 - 21 x507 <= 0
 c108: 4 x8 + 4 x58 + 4 x108 + 4 x158 + 4 x208 + 4 x258 + 4 x308 + 4 x358
       + 4 x408 + 4 x458 - 20 x508 <= 0
 c109: 4 x9 + 4 x59 + 4 x109 + 4 x159 + 4 x209 + 4 x259 + 4 x309 + 4 x359
       + 4 x409 + 4 x459 - 21 x509 <= 0
 c110: 4 x10 + 4 x60 + 4 x110 + 4 x160 + 4 x210 + 4 x260 + 4 x310 + 4 x360
       + 4 x410 + 4 x460 - 18 x510 <= 0
 c111: 4 x11 + 4 x61 + 4 x111 + 4 x161 + 4 x211 + 4 x261 + 4 x311 + 4 x361
       + 4 x411 + 4 x461 - 19 x511 <= 0
 c112: 4 x12 + 4 x62 + 4 x112 + 4 x162 + 4 x212 + 4 x262 + 4 x312 + 4 x362
       + 4 x412 + 4 x462 - 20 x512 <= 0
 c113: 4 x13 + 4 x63 + 4 x113 + 4 x163 + 4 x213 + 4 x263 + 4 x313 + 4 x363
       + 4 x413 + 4 x463 - 22 x513 <= 0
 c114: 4 x14 + 4 x64 + 4 x114 + 4 x164 + 4 x214 + 4 x264 + 4 x314 + 4 x364
       + 4 x414 + 4 x464 - 22 x514 <= 0
 c115: 4 x15 + 4 x65 + 4 x115 + 4 x165 + 4 x215 + 4 x265 + 4 x315 + 4 x365
       + 4 x415 + 4 x465 - 21 x515 <= 0
 c116: 4 x16 + 4 x66 + 4 x116 + 4 x166 + 4 x216 + 4 x266 + 4 x316 + 4 x366
       + 4 x416 + 4 x466 - 21 x516 <= 0
 c117: 4 x17 + 4 x67 + 4 x117 + 4 x167 + 4 x217 + 4 x267 + 4 x317 + 4 x367
       + 4 x417 + 4 x467 - 19 x517 <= 0
 c118: 4 x18 + 4 x68 + 4 x118 + 4 x168 + 4 x218 + 4 x268 + 4 x318 + 4 x368
       + 4 x418 + 4 x468 - 22 x518 <= 0
 c119: 4 x19 + 4 x69 + 4 x119 + 4 x169 + 4 x219 + 4 x269 + 4 x319 + 4 x369
       + 4 x419 + 4 x469 - 21 x519 <= 0
 c120: 4 x20 + 4 x70 + 4 x120 + 4 x170 + 4 x220 + 4 x270 + 4 x320 + 4 x370
       + 4 x420 + 4 x470 - 20 x520 <= 0
 c121: 4 x21 + 4 x71 + 4 x121 + 4 x171 + 4 x221 + 4 x271 + 4 x321 + 4 x371
       + 4 x421 + 4 x471 - 20 x521 <= 0
 c122: 4 x22 + 4 x72 + 4 x122 + 4 x172 + 4 x222 + 4 x272 + 4 x322 + 4 x372
       + 4 x422 + 4 x472 - 19 x522 <= 0
 c123: 4 x23 + 4 x73 + 4 x123 + 4 x173 + 4 x223 + 4 x273 + 4 x323 + 4 x373
       + 4 x423 + 4 x473 - 20 x523 <= 0
 c124: 4 x24 + 4 x74 + 4 x124 + 4 x174 + 4 x224 + 4 x274 + 4 x324 + 4 x374
       + 4 x424 + 4 x474 - 19 x524 <= 0
 c125: 4 x25 + 4 x75 + 4 x125 + 4 x175 + 4 x225 + 4 x275 + 4 x325 + 4 x375
       + 4 x425 + 4 x475 - 19 x525 <= 0
 c126: 4 x26 + 4 x76 + 4 x126 + 4 x176 + 4 x226 + 4 x276 + 4 x326 + 4 x376
       + 4 x426 + 4 x476 - 20 x526 <= 0
 c127: 4 x27 + 4 x77 + 4 x127 + 4 x177 + 4 x227 + 4 x277 + 4 x327 + 4 x377
       + 4 x427 + 4 x477 - 19 x527 <= 0
 c128: 4 x28 + 4 x78 + 4 x128 + 4 x178 + 4 x228 + 4 x278 + 4 x328 + 4 x378
       + 4 x428 + 4 x478 - 21 x528 <= 0
 c129: 4 x29 + 4 x79 + 4 x129 + 4 x179 + 4 x229 + 4 x279 + 4 x329 + 4 x379
       + 4 x429 + 4 x479 - 19 x529 <= 0
 c130: 4 x30 + 4 x80 + 4 x130 + 4 x180 + 4 x230 + 4 x280 + 4 x330 + 4 x380
       + 4 x430 + 4 x480 - 20 x530 <= 0
 c131: 4 x31 + 4 x81 + 4 x131 + 4 x181 + 4 x231 + 4 x281 + 4 x331 + 4 x381
       + 4 x431 + 4 x481 - 18 x531 <= 0
 c132: 4 x32 + 4 x82 + 4 x132 + 4 x182 + 4 x232 + 4 x282 + 4 x332 + 4 x382
       + 4 x432 + 4 x482 - 19 x532 <= 0
 c133: 4 x33 + 4 x83 + 4 x133 + 4 x183 + 4 x233 + 4 x283 + 4 x333 + 4 x383
       + 4 x433 + 4 x483 - 21 x533 <= 0
 c134: 4 x34 + 4 x84 + 4 x134 + 4 x184 + 4 x234 + 4 x284 + 4 x334 + 4 x384
       + 4 x434 + 4 x484 - 20 x534 <= 0
 c135: 4 x35 + 4 x85 + 4 x135 + 4 x185 + 4 x235 + 4 x285 + 4 x335 + 4 x385
       + 4 x435 + 4 x485 - 19 x535 <= 0
 c136: 4 x36 + 4 x86 + 4 x136 + 4 x186 + 4 x236 + 4 x286 + 4 x336 + 4 x386
       + 4 x436 + 4 x486 - 20 x536 <= 0
 c137: 4 x37 + 4 x87 + 4 x137 + 4 x187 + 4 x237 + 4 x287 + 4 x337 + 4 x387
       + 4 x437 + 4 x487 - 20 x537 <= 0
 c138: 4 x38 + 4 x88 + 4 x138 + 4 x188 + 4 x238 + 4 x288 + 4 x338 + 4 x388
       + 4 x438 + 4 x488 - 20 x538 <= 0
 c139: 4 x39 + 4 x89 + 4 x139 + 4 x189 + 4 x239 + 4 x289 + 4 x339 + 4 x389
       + 4 x439 + 4 x489 - 21 x539 <= 0
 c140: 4 x40 + 4 x90 + 4 x140 + 4 x190 + 4 x240 + 4 x290 + 4 x340 + 4 x390
       + 4 x440 + 4 x490 - 21 x540 <= 0
 c141: 4 x41 + 4 x91 + 4 x141 + 4 x191 + 4 x241 + 4 x291 + 4 x341 + 4 x391
       + 4 x441 + 4 x491 - 20 x541 <= 0
 c142: 4 x42 + 4 x92 + 4 x142 + 4 x192 + 4 x242 + 4 x292 + 4 x342 + 4 x392
       + 4 x442 + 4 x492 - 22 x542 <= 0
 c143: 4 x43 + 4 x93 + 4 x143 + 4 x193 + 4 x243 + 4 x293 + 4 x343 + 4 x393
       + 4 x443 + 4 x493 - 20 x543 <= 0
 c144: 4 x44 + 4 x94 + 4 x144 + 4 x194 + 4 x244 + 4 x294 + 4 x344 + 4 x394
       + 4 x444 + 4 x494 - 18 x544 <= 0
 c145: 4 x45 + 4 x95 + 4 x145 + 4 x195 + 4 x245 + 4 x295 + 4 x345 + 4 x395
       + 4 x445 + 4 x495 - 18 x545 <= 0
 c146: 4 x46 + 4 x96 + 4 x146 + 4 x196 + 4 x246 + 4 x296 + 4 x346 + 4 x396
       + 4 x446 + 4 x496 - 20 x546 <= 0
 c147: 4 x47 + 4 x97 + 4 x147 + 4 x197 + 4 x247 + 4 x297 + 4 x347 + 4 x397
       + 4 x447 + 4 x497 - 18 x547 <= 0
 c148: 4 x48 + 4 x98 + 4 x148 + 4 x198 + 4 x248 + 4 x298 + 4 x348 + 4 x398
       + 4 x448 + 4 x498 - 21 x548 <= 0
 c149: 4 x49 + 4 x99 + 4 x149 + 4 x199 + 4 x249 + 4 x299 + 4 x349 + 4 x399
       + 4 x449 + 4 x499 - 19 x549 <= 0
 c150: 4 x50 + 4 x100 + 4 x150 + 4 x200 + 4 x250 + 4 x300 + 4 x350 + 4 x400
       + 4 x450 + 4 x500 - 23 x550 <= 0
Bounds
 0 <= x1 <= 1
 0 <= x2 <= 1
 0 <= x3 <= 1
 0 <= x4 <= 1
 0 <= x5 <= 1
 0 <= x6 <= 1
 0 <= x7 <= 1
 0 <= x8 <= 1
 0 <= x9 <= 1
 0 <= x10 <= 1
 0 <= x11 <= 1
 0 <= x12 <= 1
 0 <= x13 <= 1
 0 <= x14 <= 1
 0 <= x15 <= 1
 0 <= x16 <= 1
 0 <= x17 <= 1
 0 <= x18 <= 1
 0 <= x19 <= 1
 0 <= x20 <= 1
 0 <= x21 <= 1
 0 <= x22 <= 1
 0 <= x23 <= 1
 0 <= x24 <= 1
 0 <= x25 <= 1
 0 <= x26 <= 1
 0 <= x27 <= 1
 0 <= x28 <= 1
 0 <= x29 <= 1
 0 <= x30 <= 1
 0 <= x31 <= 1
 0 <= x32 <= 1
 0 <= x33 <= 1
 0 <= x34 <= 1
 0 <= x35 <= 1
 0 <= x36 <= 1
 0 <= x37 <= 1
 0 <= x38 <= 1
 0 <= x39 <= 1
 0 <= x40 <= 1
 0 <= x41 <= 1
 0 <= x42 <= 1
 0 <= x43 <= 1
 0 <= x44 <= 1
 0 <= x45 <= 1
 0 <= x46 <= 1
 0 <= x47 <= 1
 0 <= x48 <= 1
 0 <= x49 <= 1
 0 <= x50 <= 1
 0 <= x51 <= 1
 0 <= x52 <= 1
 0 <= x53 <= 1
 0 <= x54 <= 1
 0 <= x55 <= 1
 0 <= x56 <= 1
 0 <= x57 <= 1
 0 <= x58 <= 1
 0 <= x59 <= 1
 0 <= x60 <= 1
 0 <= x61 <= 1
 0 <= x62 <= 1
 0 <= x63 <= 1
 0 <= x64 <= 1
 0 <= x65 <= 1
 0 <= x66 <= 1
 0 <= x67 <= 1
 0 <= x68 <= 1
 0 <= x69 <= 1
 0 <= x70 <= 1
 0 <= x71 <= 1
 0 <= x72 <= 1
 0 <= x73 <= 1
 0 <= x74 <= 1
 0 <= x75 <= 1
 0 <= x76 <= 1
 0 <= x77 <= 1
 0 <= x78 <= 1
 0 <= x79 <= 1
 0 <= x80 <= 1
 0 <= x81 <= 1
 0 <= x82 <= 1
 0 <= x83 <= 1
 0 <= x84 <= 1
 0 <= x85 <= 1
 0 <= x86 <= 1
 0 <= x87 <= 1
 0 <= x88 <= 1
 0 <= x89 <= 1
 0 <= x90 <= 1
 0 <= x91 <= 1
 0 <= x92 <= 1
 0 <= x93 <= 1
 0 <= x94 <= 1
 0 <= x95 <= 1
 0 <= x96 <= 1
 0 <= x97 <= 1
 0 <= x98 <= 1
 0 <= x99 <= 1
 0 <= x100 <= 1
 0 <= x101 <= 1
 0 <= x102 <= 1
 0 <= x103 <= 1
 0 <= x104 <= 1
 0 <= x105 <= 1
 0 <= x106 <= 1
 0 <= x107 <= 1
 0 <= x108 <= 1
 0 <= x109 <= 1
 0 <= x110 <= 1
 0 <= x111 <= 1
 0 <= x112 <= 1
 0 <= x113 <= 1
 0 <= x114 <= 1
 0 <= x115 <= 1
 0 <= x116 <= 1
 0 <= x117 <= 1
 0 <= x118 <= 1
 0 <= x119 <= 1
 0 <= x120 <= 1
 0 <= x121 <= 1
 0 <= x122 <= 1
 0 <= x123 <= 1
 0 <= x124 <= 1
 0 <= x125 <= 1
 0 <= x126 <= 1
 0 <= x127 <= 1
 0 <= x128 <= 1
 0 <= x129 <= 1
 0 <= x130 <= 1
 0 <= x131 <= 1
 0 <= x132 <= 1
 0 <= x133 <= 1
 0 <= x134 <= 1
 0 <= x135 <= 1
 0 <= x136 <= 1
 0 <= x137 <= 1
 0 <= x138 <= 1
 0 <= x139 <= 1
 0 <= x140 <= 1
 0 <= x141 <= 1
 0 <= x142 <= 1
 0 <= x143 <= 1
 0 <= x144 <= 1
 0 <= x145 <= 1
 0 <= x146 <= 1
 0 <= x147 <= 1
 0 <= x148 <= 1
 0 <= x149 <= 1
 0 <= x150 <= 1
 0 <= x151 <= 1
 0 <= x152 <= 1
 0 <= x153 <= 1
 0 <= x154 <= 1
 0 <= x155 <= 1
 0 <= x156 <= 1
 0 <= x157 <= 1
 0 <= x158 <= 1
 0 <= x159 <= 1
 0 <= x160 <= 1
 0 <= x161 <= 1
 0 <= x162 <= 1
 0 <= x163 <= 1
 0 <= x164 <= 1
 0 <= x165 <= 1
 0 <= x166 <= 1
 0 <= x167 <= 1
 0 <= x168 <= 1
 0 <= x169 <= 1
 0 <= x170 <= 1
 0 <= x171 <= 1
 0 <= x172 <= 1
 0 <= x173 <= 1
 0 <= x174 <= 1
 0 <= x175 <= 1
 0 <= x176 <= 1
 0 <= x177 <= 1
 0 <= x178 <= 1
 0 <= x179 <= 1
 0 <= x180 <= 1
 0 <= x181 <= 1
 0 <= x182 <= 1
 0 <= x183 <= 1
 0 <= x184 <= 1
 0 <= x185 <= 1
 0 <= x186 <= 1
 0 <= x187 <= 1
 0 <= x188 <= 1
 0 <= x189 <= 1
 0 <= x190 <= 1
 0 <= x191 <= 1
 0 <= x192 <= 1
 0 <= x193 <= 1
 0 <= x194 <= 1
 0 <= x195 <= 1
 0 <= x196 <= 1
 0 <= x197 <= 1
 0 <= x198 <= 1
 0 <= x199 <= 1
 0 <= x200 <= 1
 0 <= x201 <= 1
 0 <= x202 <= 1
 0 <= x203 <= 1
 0 <= x204 <= 1
 0 <= x205 <= 1
 0 <= x206 <= 1
 0 <= x207 <= 1
 0 <= x208 <= 1
 0 <= x209 <= 1
 0 <= x210 <= 1
 0 <= x211 <= 1
 0 <= x212 <= 1
 0 <= x213 <= 1
 0 <= x214 <= 1
 0 <= x215 <= 1
 0 <= x216 <= 1
 0 <= x217 <= 1
 0 <= x218 <= 1
 0 <= x219 <= 1
 0 <= x220 <= 1
 0 <= x221 <= 1
 0 <= x222 <= 1
 0 <= x223 <= 1
 0 <= x224 <= 1
 0 <= x225 <= 1
 0 <= x226 <= 1
 0 <= x227 <= 1
 0 <= x228 <= 1
 0 <= x229 <= 1
 0 <= x230 <= 1
 0 <= x231 <= 1
 0 <= x232 <= 1
 0 <= x233 <= 1
 0 <= x234 <= 1
 0 <= x235 <= 1
 0 <= x236 <= 1
 0 <= x237 <= 1
 0 <= x238 <= 1
 0 <= x239 <= 1
 0 <= x240 <= 1
 0 <= x241 <= 1
 0 <= x242 <= 1
 0 <= x243 <= 1
 0 <= x244 <= 1
 0 <= x245 <= 1
 0 <= x246 <= 1
 0 <= x247 <= 1
 0 <= x248 <= 1
 0 <= x249 <= 1
 0 <= x250 <= 1
 0 <= x251 <= 1
 0 <= x252 <= 1
 0 <= x253 <= 1
 0 <= x254 <= 1
 0 <= x255 <= 1
 0 <= x256 <= 1
 0 <= x257 <= 1
 0 <= x258 <= 1
 0 <= x259 <= 1
 0 <= x260 <= 1
 0 <= x261 <= 1
 0 <= x262 <= 1
 0 <= x263 <= 1
 0 <= x264 <= 1
 0 <= x265 <= 1
 0 <= x266 <= 1
 0 <= x267 <= 1
 0 <= x268 <= 1
 0 <= x269 <= 1
 0 <= x270 <= 1
 0 <= x271 <= 1
 0 <= x272 <= 1
 0 <= x273 <= 1
 0 <= x274 <= 1
 0 <= x275 <= 1
 0 <= x276 <= 1
 0 <= x277 <= 1
 0 <= x278 <= 1
 0 <= x279 <= 1
 0 <= x280 <= 1
 0 <= x281 <= 1
 0 <= x282 <= 1
 0 <= x283 <= 1
 0 <= x284 <= 1
 0 <= x285 <= 1
 0 <= x286 <= 1
 0 <= x287 <= 1
 0 <= x288 <= 1
 0 <= x289 <= 1
 0 <= x290 <= 1
 0 <= x291 <= 1
 0 <= x292 <= 1
 0 <= x293 <= 1
 0 <= x294 <= 1
 0 <= x295 <= 1
 0 <= x296 <= 1
 0 <= x297 <= 1
 0 <= x298 <= 1
 0 <= x299 <= 1
 0 <= x300 <= 1
 0 <= x301 <= 1
 0 <= x302 <= 1
 0 <= x303 <= 1
 0 <= x304 <= 1
 0 <= x305 <= 1
 0 <= x306 <= 1
 0 <= x307 <= 1
 0 <= x308 <= 1
 0 <= x309 <= 1
 0 <= x310 <= 1
 0 <= x311 <= 1
 0 <= x312 <= 1
 0 <= x313 <= 1
 0 <= x314 <= 1
 0 <= x315 <= 1
 0 <= x316 <= 1
 0 <= x317 <= 1
 0 <= x318 <= 1
 0 <= x319 <= 1
 0 <= x320 <= 1
 0 <= x321 <= 1
 0 <= x322 <= 1
 0 <= x323 <= 1
 0 <= x324 <= 1
 0 <= x325 <= 1
 0 <= x326 <= 1
 0 <= x327 <= 1
 0 <= x328 <= 1
 0 <= x329 <= 1
 0 <= x330 <= 1
 0 <= x331 <= 1
 0 <= x332 <= 1
 0 <= x333 <= 1
 0 <= x334 <= 1
 0 <= x335 <= 1
 0 <= x336 <= 1
 0 <= x337 <= 1
 0 <= x338 <= 1
 0 <= x339 <= 1
 0 <= x340 <= 1
 0 <= x341 <= 1
 0 <= x342 <= 1
 0 <= x343 <= 1
 0 <= x344 <= 1
 0 <= x345 <= 1
 0 <= x346 <= 1
 0 <= x347 <= 1
 0 <= x348 <= 1
 0 <= x349 <= 1
 0 <= x350 <= 1
 0 <= x351 <= 1
 0 <= x352 <= 1
 0 <= x353 <= 1
 0 <= x354 <= 1
 0 <= x355 <= 1
 0 <= x356 <= 1
 0 <= x357 <= 1
 0 <= x358 <= 1
 0 <= x359 <= 1
 0 <= x360 <= 1
 0 <= x361 <= 1
 0 <= x362 <= 1
 0 <= x363 <= 1
 0 <= x364 <= 1
 0 <= x365 <= 1
 0 <= x366 <= 1
 0 <= x367 <= 1
 0 <= x368 <= 1
 0 <= x369 <= 1
 0 <= x370 <= 1
 0 <= x371 <= 1
 0 <= x372 <= 1
 0 <= x373 <= 1
 0 <= x374 <= 1
 0 <= x375 <= 1
 0 <= x376 <= 1
 0 <= x377 <= 1
 0 <= x378 <= 1
 0 <= x379 <= 1
 0 <= x380 <= 1
 0 <= x381 <= 1
 0 <= x382 <= 1
 0 <= x383 <= 1
 0 <= x384 <= 1
 0 <= x385 <= 1
 0 <= x386 <= 1
 0 <= x387 <= 1
 0 <= x388 <= 1
 0 <= x389 <= 1
 0 <= x390 <= 1
 0 <= x391 <= 1
 0 <= x392 <= 1
 0 <= x393 <= 1
 0 <= x394 <= 1
 0 <= x395 <= 1
 0 <= x396 <= 1
 0 <= x397 <= 1
 0 <= x398 <= 1
 0 <= x399 <= 1
 0 <= x400 <= 1
 0 <= x401 <= 1
 0 <= x402 <= 1
 0 <= x403 <= 1
 0 <= x404 <= 1
 0 <= x405 <= 1
 0 <= x406 <= 1
 0 <= x407 <= 1
 0 <= x408 <= 1
 0 <= x409 <= 1
 0 <= x410 <= 1
 0 <= x411 <= 1
 0 <= x412 <= 1
 0 <= x413 <= 1
 0 <= x414 <= 1
 0 <= x415 <= 1
 0 <= x416 <= 1
 0 <= x417 <= 1
 0 <= x418 <= 1
 0 <= x419 <= 1
 0 <= x420 <= 1
 0 <= x421 <= 1
 0 <= x422 <= 1
 0 <= x423 <= 1
 0 <= x424 <= 1
 0 <= x425 <= 1
 0 <= x426 <= 1
 0 <= x427 <= 1
 0 <= x428 <= 1
 0 <= x429 <= 1
 0 <= x430 <= 1
 0 <= x431 <= 1
 0 <= x432 <= 1
 0 <= x433 <= 1
 0 <= x434 <= 1
 0 <= x435 <= 1
 0 <= x436 <= 1
 0 <= x437 <= 1
 0 <= x438 <= 1
 0 <= x439 <= 1
 0 <= x440 <= 1
 0 <= x441 <= 1
 0 <= x442 <= 1
 0 <= x443 <= 1
 0 <= x444 <= 1
 0 <= x445 <= 1
 0 <= x446 <= 1
 0 <= x447 <= 1
 0 <= x448 <= 1
 0 <= x449 <= 1
 0 <= x450 <= 1
 0 <= x451 <= 1
 0 <= x452 <= 1
 0 <= x453 <= 1
 0 <= x454 <= 1
 0 <= x455 <= 1
 0 <= x456 <= 1
 0 <= x457 <= 1
 0 <= x458 <= 1
 0 <= x459 <= 1
 0 <= x460 <= 1
 0 <= x461 <= 1
 0 <= x462 <= 1
 0 <= x463 <= 1
 0 <= x464 <= 1
 0 <= x465 <= 1
 0 <= x466 <= 1
 0 <= x467 <= 1
 0 <= x468 <= 1
 0 <= x469 <= 1
 0 <= x470 <= 1
 0 <= x471 <= 1
 0 <= x472 <= 1
 0 <= x473 <= 1
 0 <= x474 <= 1
 0 <= x475 <= 1
 0 <= x476 <= 1
 0 <= x477 <= 1
 0 <= x478 <= 1
 0 <= x479 <= 1
 0 <= x480 <= 1
 0 <= x481 <= 1
 0 <= x482 <= 1
 0 <= x483 <= 1
 0 <= x484 <= 1
 0 <= x485 <= 1
 0 <= x486 <= 1
 0 <= x487 <= 1
 0 <= x488 <= 1
 0 <= x489 <= 1
 0 <= x490 <= 1
 0 <= x491 <= 1
 0 <= x492 <= 1
 0 <= x493 <= 1
 0 <= x494 <= 1
 0 <= x495 <= 1
 0 <= x496 <= 1
 0 <= x497 <= 1
 0 <= x498 <= 1
 0 <= x499 <= 1
 0 <= x500 <= 1
 0 <= x501 <= 1
 0 <= x502 <= 1
 0 <= x503 <= 1
 0 <= x504 <= 1
 0 <= x505 <= 1
 0 <= x506 <= 1
 0 <= x507 <= 1
 0 <= x508 <= 1
 0 <= x509 <= 1
 0 <= x510 <= 1
 0 <= x511 <= 1
 0 <= x512 <= 1
 0 <= x513 <= 1
 0 <= x514 <= 1
 0 <= x515 <= 1
 0 <= x516 <= 1
 0 <= x517 <= 1
 0 <= x518 <= 1
 0 <= x519 <= 1
 0 <= x520 <= 1
 0 <= x521 <= 1
 0 <= x522 <= 1
 0 <= x523 <= 1
 0 <= x524 <= 1
 0 <= x525 <= 1
 0 <= x526 <= 1
 0 <= x527 <= 1
 0 <= x528 <= 1
 0 <= x529 <= 1
 0 <= x530 <= 1
 0 <= x531 <= 1
 0 <= x532 <= 1
 0 <= x533 <= 1
 0 <= x534 <= 1
 0 <= x535 <= 1
 0 <= x536 <= 1
 0 <= x537 <= 1
 0 <= x538 <= 1
 0 <= x539 <= 1
 0 <= x540 <= 1
 0 <= x541 <= 1
 0 <= x542 <= 1
 0 <= x543 <= 1
 0 <= x544 <= 1
 0 <= x545 <= 1
 0 <= x546 <= 1
 0 <= x547 <= 1
 0 <= x548 <= 1
 0 <= x549 <= 1
 0 <= x550 <= 1
Binaries
 x501  x502  x503  x504  x505  x506  x507  x508  x509  x510  x511  x512  x513 
 x514  x515  x516  x517  x518  x519  x520  x521  x522  x523  x524  x525  x526 
 x527  x528  x529  x530  x531  x532  x533  x534  x535  x536  x537  x538  x539 
 x540  x541  x542  x543  x544  x545  x546  x547  x548  x549  x550 
End
